NAME: random-86-17129
TYPE: TSP
COMMENT: size=86 seed=17129
DIMENSION: 174
EDGE_WEIGHT_TYPE: EUC_2D
NODE_COORD_SECTION
+0 103 430
-0 103 430
+1 95 838
-1 341 946
+2 222 991
-2 617 926
+3 717 394
-3 318 656
+4 271 284
-4 511 780
+5 390 140
-5 525 14
+6 269 182
-6 746 462
+7 389 745
-7 489 969
+8 783 432
-8 114 223
+9 399 689
-9 866 630
+10 286 678
-10 131 456
+11 692 590
-11 519 101
+12 889 728
-12 666 336
+13 748 700
-13 181 966
+14 545 659
-14 639 548
+15 873 187
-15 400 888
+16 29 770
-16 7 194
+17 14 196
-17 770 936
+18 253 833
-18 707 121
+19 781 665
-19 4 77
+20 22 17
-20 804 205
+21 509 554
-21 875 141
+22 186 102
-22 134 705
+23 381 1
-23 133 984
+24 838 615
-24 891 171
+25 288 655
-25 766 874
+26 122 405
-26 465 11
+27 288 530
-27 53 200
+28 252 296
-28 74 761
+29 126 803
-29 298 750
+30 514 12
-30 629 920
+31 335 646
-31 522 847
+32 368 65
-32 647 742
+33 553 418
-33 567 182
+34 335 879
-34 680 728
+35 881 44
-35 880 914
+36 43 263
-36 997 219
+37 469 325
-37 32 728
+38 29 764
-38 770 401
+39 291 755
-39 136 769
+40 352 754
-40 681 123
+41 260 858
-41 45 372
+42 51 770
-42 345 836
+43 861 836
-43 477 831
+44 852 353
-44 509 857
+45 723 684
-45 256 705
+46 49 823
-46 904 669
+47 619 165
-47 992 970
+48 67 447
-48 563 587
+49 553 233
-49 916 86
+50 229 939
-50 46 928
+51 361 250
-51 204 540
+52 464 336
-52 271 505
+53 986 237
-53 215 293
+54 627 639
-54 681 56
+55 343 148
-55 763 52
+56 603 6
-56 654 445
+57 278 282
-57 831 725
+58 27 488
-58 437 719
+59 426 502
-59 921 896
+60 667 491
-60 119 675
+61 889 677
-61 93 675
+62 168 320
-62 406 597
+63 70 287
-63 830 236
+64 757 220
-64 294 237
+65 530 457
-65 668 420
+66 199 166
-66 5 461
+67 37 285
-67 970 915
+68 781 707
-68 924 358
+69 610 194
-69 258 399
+70 570 277
-70 71 686
+71 556 622
-71 453 492
+72 544 408
-72 325 94
+73 803 272
-73 16 523
+74 291 354
-74 458 93
+75 362 537
-75 474 264
+76 598 114
-76 194 145
+77 475 725
-77 881 40
+78 764 367
-78 0 787
+79 903 176
-79 751 308
+80 941 987
-80 431 675
+81 134 7
-81 323 182
+82 521 639
-82 830 990
+83 176 78
-83 485 779
+84 518 860
-84 584 360
+85 538 969
-85 654 874
+86 941 948
-86 523 166
PRECEDENCE_SECTION
+0 -0
+1 -1
+2 -2
+3 -3
+4 -4
+5 -5
+6 -6
+7 -7
+8 -8
+9 -9
+10 -10
+11 -11
+12 -12
+13 -13
+14 -14
+15 -15
+16 -16
+17 -17
+18 -18
+19 -19
+20 -20
+21 -21
+22 -22
+23 -23
+24 -24
+25 -25
+26 -26
+27 -27
+28 -28
+29 -29
+30 -30
+31 -31
+32 -32
+33 -33
+34 -34
+35 -35
+36 -36
+37 -37
+38 -38
+39 -39
+40 -40
+41 -41
+42 -42
+43 -43
+44 -44
+45 -45
+46 -46
+47 -47
+48 -48
+49 -49
+50 -50
+51 -51
+52 -52
+53 -53
+54 -54
+55 -55
+56 -56
+57 -57
+58 -58
+59 -59
+60 -60
+61 -61
+62 -62
+63 -63
+64 -64
+65 -65
+66 -66
+67 -67
+68 -68
+69 -69
+70 -70
+71 -71
+72 -72
+73 -73
+74 -74
+75 -75
+76 -76
+77 -77
+78 -78
+79 -79
+80 -80
+81 -81
+82 -82
+83 -83
+84 -84
+85 -85
+86 -86
EOF
